1
1000
53
256 2
260 1
261 1
391 1
393 1
266 2
267 1
268 2
270 1
271 1
272 1
274 1
276 1
405 1
279 1
281 1
495 1
286 2
389 1
440 1
420 1
424 1
299 1
301 1
302 1
304 2
433 1
435 1
436 1
309 1
438 1
312 1
314 1
321 1
450 1
395 1
329 1
462 1
337 1
339 1
341 1
470 1
472 1
442 1
352 1
367 1
372 1
373 1
250 1
251 1
252 1
254 2
255 2
